
Gurobi 11.0.3 (linux64) logging started Sat Nov 23 15:18:41 2024

Set parameter LogFile to value "/home/yihong/Coding/OR_SUC/SUC_results_bigM100000_thread4/case24_ieee_rts_theta0.5_epsilon0.025_gurobi_seed40000_num_gen100_N_WDR50_load_scaling_factor1_proposed_T24quadra_cost.txt"
Set parameter TimeLimit to value 3600
Gurobi Optimizer version 11.0.3 build v11.0.3rc0 (linux64 - "Ubuntu 20.04.6 LTS")

CPU model: AMD EPYC 7532 32-Core Processor, instruction set [SSE2|AVX|AVX2]
Thread count: 64 physical cores, 128 logical processors, using up to 4 threads

Optimize a model with 50020 rows, 29811 columns and 506326 nonzeros
Model fingerprint: 0xcbb0b561
Model has 2400 quadratic constraints
Variable types: 27411 continuous, 2400 integer (2400 binary)
Coefficient statistics:
  Matrix range     [3e-04, 2e+03]
  QMatrix range    [2e-03, 8e-03]
  QLMatrix range   [5e-01, 6e+01]
  Objective range  [1e+00, 1e+00]
  Bounds range     [1e+00, 1e+00]
  RHS range        [1e+00, 9e+03]
Presolve removed 40337 rows and 12932 columns
Presolve time: 0.24s
Presolved: 9683 rows, 16879 columns, 51553 nonzeros
Presolved model has 2400 quadratic constraint(s)
Variable types: 14479 continuous, 2400 integer (2400 binary)

Root relaxation: objective 7.600263e+04, 8371 iterations, 0.15 seconds (0.19 work units)

    Nodes    |    Current Node    |     Objective Bounds      |     Work
 Expl Unexpl |  Obj  Depth IntInf | Incumbent    BestBd   Gap | It/Node Time

H    0     0                    679528.52855 76002.6341  88.8%     -    0s
*    0     0               0    679528.52855 76002.6341  88.8%     -    0s
     0     0 420733.517    0  720 679528.529 420733.517  38.1%     -    1s
     0     0 655511.449    0  236 679528.529 655511.449  3.53%     -    1s
     0     0 655567.366    0   61 679528.529 655567.366  3.53%     -    1s
     0     0 655700.320    0   55 679528.529 655700.320  3.51%     -    1s
     0     0 655700.785    0   54 679528.529 655700.785  3.51%     -    1s
     0     0 655702.144    0   53 679528.529 655702.144  3.51%     -    1s
     0     0 655702.452    0   53 679528.529 655702.452  3.51%     -    1s
     0     2 655702.452    0   53 679528.529 655702.452  3.51%     -    2s
   246   248 656188.190   64    6 679528.529 655703.284  3.51%  19.5    5s
H  349   355                    656334.72352 655703.284  0.10%  19.9    6s
*  349   355              86    656334.72352 655703.854  0.10%  19.9    6s

Cutting planes:
  Gomory: 5
  Lift-and-project: 5
  Implied bound: 268
  MIR: 17
  Flow cover: 106
  RLT: 371
  Relax-and-lift: 83

Explored 393 nodes (29156 simplex iterations) in 6.89 seconds (7.79 work units)
Thread count was 4 (of 128 available processors)

Solution count 2: 656335 679529 

Optimal solution found (tolerance 1.00e-03)
Warning: max constraint violation (3.2652e-08) exceeds tolerance
Best objective 6.563347235203e+05, best bound 6.557045251354e+05, gap 0.0960%
